sing20211017.12
TTAA  67121 48698
99007 27024 03009 00090 26417 00506 92777 23238 35008
85512 19050 35004 70158 09437 18004 50587 04508 11016
40760 14924 09525 30972 28732 08533 25100 39350 07529
20248 52550 05527 15428 67356 05554 10662 77956 12019
88112 80350 08054
77999=
TTCC  67112 48698
70871 71757 27041 50070 69358 25543 30380 60957 10564
20638 50360 09578
88999
77247 09082 42013=
TTDD  6711/ 48698
11884 76356 22833 73757 33817 69960 44775 71357 55672 72957
66611 71558 77593 68559 88394 68357 99276 56959 11253 57358
22159 43563
21212 11918 18025 22866 19014 33843 26512 44766 27035 55709
27041 66636 27525 77509 25543 88468 26027 99439 30504 11438
32002 22433 21004 33420 20516 44407 20012 55392 14504 66389
10504 77388 08004 88384 05010 99359 06018 11335 09551 22322
10558 33247 09082 44242 08582 55159 09062=
